[runlim] version:		1.10
[runlim] time limit:		1800 seconds
[runlim] real time limit:	1800 seconds
[runlim] space limit:		30000 MB
[runlim] argv[0]:		python
[runlim] argv[1]:		FE.py
[runlim] argv[2]:		N-bcsstk07.mtx.rnd
[runlim] start:			Mon Oct  7 18:46:21 2024
[runlim] main pid:		554107
[runlim] log captured:
[runlim] sample:		10.0 time, 10.1 real, 724.4 MB
[runlim] sample:		20.0 time, 20.1 real, 1373.5 MB
[runlim] sample:		30.0 time, 30.1 real, 2049.5 MB
[runlim] sample:		40.0 time, 40.1 real, 2762.9 MB
72
28
Version identifier: 20.1.0.0 | 2020-11-10 | 9bedb6d68
CPXPARAM_Simplex_PGradient                       4
CPXPARAM_Read_DataCheck                          1
CPXPARAM_MIP_Strategy_File                       3
CPXPARAM_TimeLimit                               1800
CPXPARAM_WorkMem                                 122880
[runlim] sample:		50.0 time, 50.1 real, 1283.7 MB
[runlim] sample:		60.0 time, 60.1 real, 3322.5 MB
Presolve has eliminated 210 rows and 210 columns...
[runlim] sample:		70.0 time, 70.1 real, 3352.2 MB
Tried aggregator 1 time.
[runlim] sample:		84.2 time, 80.1 real, 6009.5 MB
[runlim] sample:		104.2 time, 90.1 real, 6009.5 MB
[runlim] sample:		124.2 time, 100.1 real, 6009.5 MB
[runlim] sample:		144.2 time, 110.1 real, 6009.5 MB
[runlim] sample:		164.2 time, 120.1 real, 6009.8 MB
[runlim] sample:		184.2 time, 130.1 real, 6009.8 MB
[runlim] sample:		204.2 time, 140.1 real, 6011.3 MB
[runlim] sample:		224.2 time, 150.1 real, 6013.3 MB
[runlim] sample:		244.2 time, 160.1 real, 6015.6 MB
[runlim] sample:		264.2 time, 170.1 real, 6019.6 MB
[runlim] sample:		284.2 time, 180.1 real, 6021.6 MB
[runlim] sample:		304.2 time, 190.1 real, 6021.6 MB
[runlim] sample:		324.2 time, 200.1 real, 6021.6 MB
[runlim] sample:		344.2 time, 210.1 real, 6021.6 MB
[runlim] sample:		364.2 time, 220.1 real, 6025.6 MB
[runlim] sample:		384.2 time, 230.1 real, 6025.6 MB
[runlim] sample:		404.2 time, 240.1 real, 6025.6 MB
[runlim] sample:		424.2 time, 250.1 real, 6025.6 MB
[runlim] sample:		444.2 time, 260.1 real, 6025.6 MB
[runlim] sample:		464.2 time, 270.1 real, 6025.6 MB
[runlim] sample:		484.2 time, 280.1 real, 6027.6 MB
[runlim] sample:		504.1 time, 290.1 real, 6031.6 MB
[runlim] sample:		524.2 time, 300.1 real, 6035.6 MB
[runlim] sample:		544.1 time, 310.1 real, 6035.6 MB
[runlim] sample:		564.1 time, 320.1 real, 6037.6 MB
[runlim] sample:		584.1 time, 330.1 real, 6039.6 MB
[runlim] sample:		604.1 time, 340.1 real, 6039.6 MB
[runlim] sample:		624.1 time, 350.1 real, 6040.6 MB
[runlim] sample:		644.1 time, 360.1 real, 6040.6 MB
[runlim] sample:		664.1 time, 370.1 real, 6040.6 MB
[runlim] sample:		684.1 time, 380.1 real, 6040.6 MB
[runlim] sample:		704.1 time, 390.1 real, 6042.1 MB
[runlim] sample:		724.1 time, 400.1 real, 6044.9 MB
[runlim] sample:		744.1 time, 410.1 real, 6044.9 MB
[runlim] sample:		764.1 time, 420.1 real, 6047.7 MB
[runlim] sample:		784.1 time, 430.1 real, 6050.9 MB
[runlim] sample:		804.1 time, 440.1 real, 6051.9 MB
[runlim] sample:		824.1 time, 450.1 real, 6055.2 MB
[runlim] sample:		844.1 time, 460.1 real, 6055.8 MB
[runlim] sample:		864.1 time, 470.1 real, 6057.8 MB
[runlim] sample:		884.1 time, 480.1 real, 6061.8 MB
[runlim] sample:		904.1 time, 490.1 real, 6063.8 MB
[runlim] sample:		924.1 time, 500.1 real, 6069.8 MB
[runlim] sample:		944.1 time, 510.1 real, 6073.8 MB
[runlim] sample:		964.1 time, 520.1 real, 6075.8 MB
[runlim] sample:		984.1 time, 530.1 real, 6078.3 MB
[runlim] sample:		1004.1 time, 540.1 real, 6078.8 MB
[runlim] sample:		1024.1 time, 550.1 real, 6087.9 MB
[runlim] sample:		1044.1 time, 560.1 real, 6091.9 MB
[runlim] sample:		1064.1 time, 570.1 real, 6093.9 MB
[runlim] sample:		1084.1 time, 580.1 real, 6093.9 MB
[runlim] sample:		1104.1 time, 590.1 real, 6097.9 MB
[runlim] sample:		1124.1 time, 600.1 real, 6107.3 MB
[runlim] sample:		1144.1 time, 610.1 real, 6108.7 MB
[runlim] sample:		1164.1 time, 620.1 real, 6108.7 MB
[runlim] sample:		1184.1 time, 630.1 real, 6112.7 MB
[runlim] sample:		1204.1 time, 640.1 real, 6116.7 MB
[runlim] sample:		1224.1 time, 650.1 real, 6119.5 MB
[runlim] sample:		1244.1 time, 660.1 real, 6120.3 MB
[runlim] sample:		1264.1 time, 670.1 real, 6124.8 MB
[runlim] sample:		1284.1 time, 680.1 real, 6126.8 MB
[runlim] sample:		1304.1 time, 690.1 real, 6130.8 MB
[runlim] sample:		1324.1 time, 700.1 real, 6132.8 MB
[runlim] sample:		1344.1 time, 710.1 real, 6136.8 MB
[runlim] sample:		1364.1 time, 720.1 real, 6138.8 MB
[runlim] sample:		1384.1 time, 730.1 real, 6142.8 MB
[runlim] sample:		1404.1 time, 740.1 real, 6145.7 MB
[runlim] sample:		1424.1 time, 750.1 real, 6146.5 MB
[runlim] sample:		1444.0 time, 760.1 real, 6150.3 MB
[runlim] sample:		1464.0 time, 770.1 real, 6154.6 MB
[runlim] sample:		1484.0 time, 780.1 real, 6156.8 MB
[runlim] sample:		1504.0 time, 790.1 real, 6158.8 MB
[runlim] sample:		1524.0 time, 800.1 real, 6158.8 MB
[runlim] sample:		1544.0 time, 810.1 real, 6162.8 MB
[runlim] sample:		1564.0 time, 820.1 real, 6162.8 MB
[runlim] sample:		1584.0 time, 830.1 real, 6166.8 MB
[runlim] sample:		1604.0 time, 840.1 real, 6168.8 MB
[runlim] sample:		1623.9 time, 850.1 real, 6170.8 MB
[runlim] sample:		1633.9 time, 860.1 real, 4324.7 MB
[runlim] sample:		1643.9 time, 870.1 real, 3500.0 MB
[runlim] sample:		1653.9 time, 880.1 real, 3500.0 MB
Presolve has eliminated 1298543 rows and 210 columns...
MIP Presolve eliminated 1298543 rows and 210 columns.
MIP Presolve modified 70711 coefficients.
Reduced MIP has 164467 rows, 176190 columns, and 20667155 nonzeros.
Reduced MIP has 176190 binaries, 0 generals, 0 SOSs, and 0 indicators.
Presolve time = 830.94 sec. (929814.42 ticks)
[runlim] sample:		1663.9 time, 890.1 real, 3515.4 MB
[runlim] sample:		1673.9 time, 900.1 real, 3289.8 MB
[runlim] sample:		1683.9 time, 910.1 real, 3289.8 MB
Probing time = 0.32 sec. (43.96 ticks)
Tried aggregator 1 time.
[runlim] sample:		1694.8 time, 920.1 real, 3524.6 MB
[runlim] sample:		1707.4 time, 930.1 real, 3312.4 MB
[runlim] sample:		1717.4 time, 940.1 real, 3312.4 MB
Presolve has eliminated 0 rows and 0 columns...
Detecting symmetries...
Reduced MIP has 164467 rows, 176190 columns, and 20667155 nonzeros.
Reduced MIP has 176190 binaries, 0 generals, 0 SOSs, and 0 indicators.
Presolve time = 31.15 sec. (27468.52 ticks)
Probing time = 0.31 sec. (43.92 ticks)
Clique table members: 164467.
[runlim] sample:		1735.1 time, 950.1 real, 4042.6 MB
MIP emphasis: balance optimality and feasibility.
MIP search method: dynamic search.
Parallel mode: deterministic, using up to 8 threads.
[runlim] sample:		1783.7 time, 960.1 real, 6673.9 MB
[runlim] end:			Mon Oct  7 19:02:24 2024
[runlim] status:		out of time
[runlim] result:		2
[runlim] children:		0
[runlim] real:			963.50 seconds
[runlim] time:			1800.32 seconds
[runlim] space:			6883.6 MB
[runlim] samples:		9634
